
GUB cover cuts applied:  3
Clique cuts applied:  2
Cover cuts applied:  23
Implied bound cuts applied:  100
Flow cuts applied:  2
Mixed integer rounding cuts applied:  16
Zero-half cuts applied:  3
Gomory fractional cuts applied:  1

Root node processing (before b&c):
  Real time             =    0.08 sec. (52.82 ticks)
Parallel b&c, 4 threads:
  Real time             =    0.10 sec. (76.40 ticks)
  Sync time (average)   =    0.02 sec.
  Wait time (average)   =    0.00 sec.
                          ------------
Total (root+branch&cut) =    0.17 sec. (129.23 ticks)
Version identifier: 12.10.0.0 | 2019-11-26 | 843d4de
CPXPARAM_MIP_Interval                            10
CPXPARAM_MIP_Tolerances_AbsMIPGap                0.98999999999999999
Tried aggregator 2 times.
MIP Presolve eliminated 3175 rows and 1518 columns.
MIP Presolve added 4 rows and 0 columns.
MIP Presolve modified 130 coefficients.
Aggregator did 11 substitutions.
Reduced MIP has 1530 rows, 190 columns, and 3468 nonzeros.
Reduced MIP has 151 binaries, 39 generals, 0 SOSs, and 0 indicators.
Presolve time = 0.01 sec. (5.67 ticks)
Probing fixed 0 vars, tightened 9 bounds.
Probing time = 0.00 sec. (0.67 ticks)
Cover probing fixed 0 vars, tightened 28 bounds.
Tried aggregator 1 time.
Detecting symmetries...
MIP Presolve eliminated 1172 rows and 0 columns.
MIP Presolve modified 9 coefficients.
Reduced MIP has 358 rows, 190 columns, and 1124 nonzeros.
Reduced MIP has 151 binaries, 39 generals, 0 SOSs, and 0 indicators.
Presolve time = 0.00 sec. (1.28 ticks)
Probing fixed 0 vars, tightened 10 bounds.
Probing time = 0.00 sec. (0.23 ticks)
Cover probing fixed 0 vars, tightened 24 bounds.
Clique table members: 242.
MIP emphasis: balance optimality and feasibility.
MIP search method: dynamic search.
Parallel mode: deterministic, using up to 4 threads.
Root relaxation solution time = 0.01 sec. (2.44 ticks)

        Nodes                                         Cuts/
   Node  Left     Objective  IInf  Best Integer    Best Bound    ItCnt     Gap

      0     0       25.6667    73                     25.6667      214         
      0     0       25.5833    73                   Cuts: 142      332         
      0     0       25.5000    73                    Cuts: 92      437         
      0     0       25.5000    73                    Cuts: 67      501         
      0     0       25.5000    73                    Cuts: 87      578         
      0     0       25.5000    73                    Cuts: 11      614         
Detecting symmetries...
      0     0       25.5000    73                    Cuts: 61      694         
*     0+    0                           14.0000       25.5000            82.14%
*     0+    0                           22.0000       25.5000            15.91%
Detecting symmetries...
      0     2       25.5000   135       22.0000       25.5000      694   15.91%
Elapsed time = 0.20 sec. (153.26 ticks, tree = 0.02 MB, solutions = 2)
*     4+    2                           23.0000       25.5000            10.87%
     10    11       24.2833    83       23.0000       25.5000     1282   10.87%
     20    12        cutoff             23.0000       25.5000     1768   10.87%
     30    18       25.3333    66       23.0000       25.5000     2114   10.87%
     40    26       24.2821    98       23.0000       25.5000     3180   10.87%
     50    29       24.2685    91       23.0000       25.5000     3214   10.87%
     60    32       24.6667    30       23.0000       25.5000     3632   10.87%
     70    34       25.3333    75       23.0000       25.5000     4015   10.87%
     80    31       25.3333   117       23.0000       25.5000     3910   10.87%
     90    44       24.3333    58       23.0000       25.5000     5345   10.87%
    100    52       24.1667    73       23.0000       25.5000     6127   10.87%
Elapsed time = 0.24 sec. (194.82 ticks, tree = 0.04 MB, solutions = 3)
    110    56       24.7500    75       23.0000       25.4409     6350   10.61%
    120    62       24.5000    61       23.0000       25.4409     7260   10.61%
    130    68       24.8889    42       23.0000       25.4409     7569   10.61%
    140    63       24.9571   110       23.0000       25.4409     7472   10.61%
    150    81       24.1667    35       23.0000       25.3333     8503   10.14%
    160    81        cutoff             23.0000       25.3333     8576   10.14%
    170    78        cutoff             23.0000       25.3333     8317   10.14%
    180    84       24.4533    79       23.0000       25.3333     8780   10.14%
    190    87       24.7748    66       23.0000       25.2500     8771    9.78%
    200   101       24.0000    30       23.0000       25.2500     9506    9.78%
Elapsed time = 0.27 sec. (219.25 ticks, tree = 0.14 MB, solutions = 3)
    210   104       24.0333    61       23.0000       25.2263     9974    9.68%
    220    97        cutoff             23.0000       25.2263     9323    9.68%
    230    90       24.4167    62       23.0000       25.2263     9070    9.68%
    240   108       24.1667    46       23.0000       25.2263     9687    9.68%
    250   104       25.0000    94       23.0000       25.2000    10074    9.57%
    260   109        cutoff             23.0000       25.2000     9776    9.57%
    270   125       24.5741    61       23.0000       25.2000    10673    9.57%
    280   111       24.5000    49       23.0000       25.2000    10178    9.57%
    290   132        cutoff             23.0000       25.1667    10960    9.42%
    300   142       24.1944    55       23.0000       25.1000    11329    9.13%
Elapsed time = 0.28 sec. (234.00 ticks, tree = 0.21 MB, solutions = 3)
    310   113        cutoff             23.0000       25.1000    10518    9.13%
    320   131       24.0000    73       23.0000       25.1000    10892    9.13%
    330   146       24.0667    51       23.0000       25.1000    11472    9.13%
    340   118       24.0000    48       23.0000       25.1000    10615    9.13%
    350   146       24.3542    94       23.0000       25.1000    11531    9.13%
    360   158        cutoff             23.0000       25.0526    12134    8.92%
    370   140       24.3889    71       23.0000       25.0526    11346    8.92%
    380   154        cutoff             23.0000       25.0526    11846    8.92%
    390   156       24.4403    94       23.0000       25.0526    11917    8.92%
    400   162       24.1458    64       23.0000       25.0000    12267    8.70%
Elapsed time = 0.30 sec. (248.73 ticks, tree = 0.30 MB, solutions = 3)
    410   166       24.0667    55       23.0000       25.0000    12342    8.70%
    420   172        cutoff             23.0000       25.0000    12697    8.70%
    430   173       24.0833    56       23.0000       25.0000    12742    8.70%
    440   179       24.5917    77       23.0000       25.0000    13373    8.70%
    450   173        cutoff             23.0000       25.0000    12863    8.70%
    460   174       24.6481    86       23.0000       25.0000    12901    8.70%
    470   195       24.1250   109       23.0000       24.9848    14160    8.63%
    480   177       24.2020    86       23.0000       24.9848    12983    8.63%
    490   195       24.5641   113       23.0000       24.9848    14257    8.63%
    500   201       24.0876    70       23.0000       24.9571    15202    8.51%
Elapsed time = 0.32 sec. (269.23 ticks, tree = 0.39 MB, solutions = 3)
    510   191       24.2136   113       23.0000       24.9571    13920    8.51%
    520   198       24.0000   104       23.0000       24.9571    14510    8.51%
    530   199       24.0000   119       23.0000       24.9571    14588    8.51%
    540   195       24.2783   100       23.0000       24.9571    14899    8.51%
    550   192        cutoff             23.0000       24.9394    14974    8.43%
    560   203        cutoff             23.0000       24.8333    15737    7.97%
    570   203       24.2500    96       23.0000       24.8333    15791    7.97%
    580   201        cutoff             23.0000       24.8333    17104    7.97%
    590   205       24.4167    44       23.0000       24.8333    16146    7.97%
    600   199        cutoff             23.0000       24.8333    16557    7.97%
Elapsed time = 0.35 sec. (296.26 ticks, tree = 0.38 MB, solutions = 3)
    610   204       24.3283   122       23.0000       24.8333    17780    7.97%
    620   203        cutoff             23.0000       24.8333    17866    7.97%
    630   207       24.0000    82       23.0000       24.7500    17473    7.61%
    640   201        cutoff             23.0000       24.7260    19554    7.50%
    650   200        cutoff             23.0000       24.7260    19578    7.50%
    660   199        cutoff             23.0000       24.7260    19627    7.50%
    670   194        cutoff             23.0000       24.7088    19089    7.43%
    680   201       24.0607    79       23.0000       24.7088    20141    7.43%
    690   194        cutoff             23.0000       24.7088    20304    7.43%
    700   208        cutoff             23.0000       24.7088    18704    7.43%
Elapsed time = 0.37 sec. (322.51 ticks, tree = 0.43 MB, solutions = 3)
    710   209        cutoff             23.0000       24.7088    18767    7.43%
    720   197        cutoff             23.0000       24.6667    20352    7.25%
    730   188        cutoff             23.0000       24.6667    20545    7.25%
    740   187        cutoff             23.0000       24.6667    20584    7.25%
    750   183        cutoff             23.0000       24.6667    20665    7.25%
    760   187        cutoff             23.0000       24.6111    21524    7.00%
    770   172        cutoff             23.0000       24.6111    22346    7.00%
    780   169        cutoff             23.0000       24.6111    22447    7.00%
    790   184       24.2273    96       23.0000       24.6111    21721    7.00%
    800   185        cutoff             23.0000       24.6111    22169    7.00%
Elapsed time = 0.40 sec. (349.27 ticks, tree = 0.34 MB, solutions = 3)
    810   164       24.2152   116       23.0000       24.5686    22778    6.82%
    820   162        cutoff             23.0000       24.5686    22844    6.82%
    830   144       24.0263    64       23.0000       24.5000    24408    6.52%
    840   144       24.0876    56       23.0000       24.5000    23921    6.52%
    850   159        cutoff             23.0000       24.5000    23081    6.52%
    860   137        cutoff             23.0000       24.5000    24758    6.52%
    870   159       24.0667    83       23.0000       24.5000    23197    6.52%
    880   120       24.0500    85       23.0000       24.4386    25728    6.25%
    890   133        cutoff             23.0000       24.4386    25111    6.25%
    900   146       24.0000    53       23.0000       24.4386    24831    6.25%
Elapsed time = 0.42 sec. (373.19 ticks, tree = 0.25 MB, solutions = 3)
    910   115        cutoff             23.0000       24.4386    25874    6.25%
    920   112        cutoff             23.0000       24.4386    25890    6.25%
    930   113        cutoff             23.0000       24.4386    25887    6.25%
    940   108        cutoff             23.0000       24.4386    25958    6.25%
    950    96        cutoff             23.0000       24.3511    26193    5.87%
    960    90        cutoff             23.0000       24.3333    27396    5.80%
    970   102        cutoff             23.0000       24.3333    26128    5.80%
    980    81        cutoff             23.0000       24.3333    27481    5.80%
    990    73        cutoff             23.0000       24.2500    27572    5.43%
   1000    66        cutoff             23.0000       24.1923    27786    5.18%
Elapsed time = 0.45 sec. (391.49 ticks, tree = 0.09 MB, solutions = 3)
   1010    44        cutoff             23.0000       24.1813    27949    5.14%
   1020    35        cutoff             23.0000       24.1813    27996    5.14%
   1030    59        cutoff             23.0000       24.1813    27982    5.14%
   1040    21    infeasible             23.0000       24.1813    28076    5.14%
the number of Nodes = 1047
